certificates/rado_a10_c256_N30.cnf
c Rad2 upper bound instance: x1 + 10*x2 - x3 = 256, interval [1,30]
p cnf 30 180
1 5 26 0
-1 -5 -26 0
1 15 27 0
-1 -15 -27 0
1 25 28 0
-1 -25 -28 0
2 6 26 0
-2 -6 -26 0
2 16 27 0
-2 -16 -27 0
2 26 28 0
-2 -26 -28 0
3 7 26 0
-3 -7 -26 0
3 17 27 0
-3 -17 -27 0
3 27 28 0
-3 -27 -28 0
4 8 26 0
-4 -8 -26 0
4 18 27 0
-4 -18 -27 0
4 28 0
-4 -28 0
5 9 26 0
-5 -9 -26 0
5 19 27 0
-5 -19 -27 0
5 28 29 0
-5 -28 -29 0
6 10 26 0
-6 -10 -26 0
6 20 27 0
-6 -20 -27 0
6 28 30 0
-6 -28 -30 0
1 7 25 0
-1 -7 -25 0
7 11 26 0
-7 -11 -26 0
7 21 27 0
-7 -21 -27 0
2 8 25 0
-2 -8 -25 0
8 12 26 0
-8 -12 -26 0
8 22 27 0
-8 -22 -27 0
3 9 25 0
-3 -9 -25 0
9 13 26 0
-9 -13 -26 0
9 23 27 0
-9 -23 -27 0
4 10 25 0
-4 -10 -25 0
10 14 26 0
-10 -14 -26 0
10 24 27 0
-10 -24 -27 0
5 11 25 0
-5 -11 -25 0
11 15 26 0
-11 -15 -26 0
11 25 27 0
-11 -25 -27 0
6 12 25 0
-6 -12 -25 0
12 16 26 0
-12 -16 -26 0
12 26 27 0
-12 -26 -27 0
7 13 25 0
-7 -13 -25 0
13 17 26 0
-13 -17 -26 0
13 27 0
-13 -27 0
8 14 25 0
-8 -14 -25 0
14 18 26 0
-14 -18 -26 0
14 27 28 0
-14 -27 -28 0
9 15 25 0
-9 -15 -25 0
15 19 26 0
-15 -19 -26 0
15 27 29 0
-15 -27 -29 0
10 16 25 0
-10 -16 -25 0
16 20 26 0
-16 -20 -26 0
16 27 30 0
-16 -27 -30 0
1 17 24 0
-1 -17 -24 0
11 17 25 0
-11 -17 -25 0
17 21 26 0
-17 -21 -26 0
2 18 24 0
-2 -18 -24 0
12 18 25 0
-12 -18 -25 0
18 22 26 0
-18 -22 -26 0
3 19 24 0
-3 -19 -24 0
13 19 25 0
-13 -19 -25 0
19 23 26 0
-19 -23 -26 0
4 20 24 0
-4 -20 -24 0
14 20 25 0
-14 -20 -25 0
20 24 26 0
-20 -24 -26 0
5 21 24 0
-5 -21 -24 0
15 21 25 0
-15 -21 -25 0
21 25 26 0
-21 -25 -26 0
6 22 24 0
-6 -22 -24 0
16 22 25 0
-16 -22 -25 0
22 26 0
-22 -26 0
7 23 24 0
-7 -23 -24 0
17 23 25 0
-17 -23 -25 0
23 26 27 0
-23 -26 -27 0
8 24 0
-8 -24 0
18 24 25 0
-18 -24 -25 0
24 26 28 0
-24 -26 -28 0
9 24 25 0
-9 -24 -25 0
19 25 0
-19 -25 0
25 26 29 0
-25 -26 -29 0
10 24 26 0
-10 -24 -26 0
20 25 26 0
-20 -25 -26 0
26 30 0
-26 -30 0
1 23 27 0
-1 -23 -27 0
11 24 27 0
-11 -24 -27 0
21 25 27 0
-21 -25 -27 0
2 23 28 0
-2 -23 -28 0
12 24 28 0
-12 -24 -28 0
22 25 28 0
-22 -25 -28 0
3 23 29 0
-3 -23 -29 0
13 24 29 0
-13 -24 -29 0
23 25 29 0
-23 -25 -29 0
4 23 30 0
-4 -23 -30 0
14 24 30 0
-14 -24 -30 0
24 25 30 0
-24 -25 -30 0
