certificates/rado_a10_c256_N30.drat
-28 -30 0
-30 0
26 0
-22 0
28 0
-4 0
-2 0
-24 0
23 0
8 0
14 0
25 0
18 0
20 0
6 0
-19 0
-17 0
-27 0
-12 0
0
